n_machines = 2;
n_resources = 3;
n_jobs = 27;
horizon = 15795;
LB = 8320;
n_jobs_per_resource = [6, 6, 15];
duration = [488, 617, 975, 939, 465, 855, 785, 358, 657, 664, 459, 213, 659, 620, 681, 339, 809, 719, 457, 334, 141, 292, 631, 570, 554, 898, 616]